12 40 6 10
18 7 12 2 12 1 12 9 15 12 14 10 1 12 11 19 4 17 20 6 14 14 2 4 11 20 17 9 13 5 13 9 15 20 19 5 5 1 20 6 
4.89 0.02 3.09 4.52 4.77 2.54 1 6.16 1.44 6.46 2.72 5.53 3.42 2.78 2.17 0.98 4.64 4.57 5.95 1.73 4.54 6.36 0.01 1.89 7.76 4.43 5.56 4.24 5.88 4.73 7.02 0.63 3.67 1.34 0.71 1.59 3.83 4.17 2.44 5.55 
5.61 5.28 4.91 3.56 4.69 6.16 5.29 2.31 6.25 4.67 6.04 5.33 3.2 4.39 7.34 3.38 4.42 0.05 7.28 4.92 4.34 0.45 4.75 0.56 4.42 5.72 6.42 5.92 4.82 3.9 4.86 7.5 4.38 1.75 1.88 4.34 4.27 0.71 0.63 2.63 
3.04 3.72 0.77 2.58 1.02 4.43 1.43 5.93 6.97 4.57 5.35 3.27 6.44 0.71 2.84 0.19 7.01 2.35 3.58 0.63 0.89 2.25 3.08 7.71 2.4 5.78 1.45 1.66 5.73 4.59 1.45 6.28 7.84 3.55 1.44 4.24 6.34 7.07 7.05 4.52 
3.06 6.47 0.2 1.11 2.52 2.37 7.99 7.71 7.07 3.91 1.92 6.27 5.45 3.95 7.29 2.79 5.39 6.51 0.4 6.86 7.83 3.73 6.59 5.14 6.3 1.87 6.14 3.42 5.54 5.86 1.55 0.33 5.03 3.01 0.08 5.78 7.92 6.57 0.92 4.22 
6.52 4.12 4.38 7.22 1.99 3.41 5.81 0.21 3.17 7.93 3.99 5.29 5.29 2.96 0.43 6.14 3.03 2.81 6.27 4.58 2.66 2.31 3.33 5.11 2.9 7.23 4.91 3.36 4.04 1.25 4.41 4.28 3.74 1.67 5.8 0.42 6.9 1.53 5.03 7.35 
2.95 3.35 6.71 8 7.44 1.09 1.2 0.28 0.76 0.06 0.05 5.48 6.46 4.22 3.17 5.11 3.02 5.64 5.62 0.1 6.69 4.27 3.91 6.9 2.43 4.12 4.02 0.1 5.56 4.47 4.4 0.11 0.56 4.78 0.8 2.54 6.73 7.28 0.78 1.05 
4 4 4 4 4 4 4 4 4 4 4 4 4 4 4 4 4 4 4 4 4 4 4 4 4 4 4 4 4 4 4 4 4 4 4 4 4 4 4 4 
2.37 2.28 5.56 4.5 6.47 7.26 1.03 0.5 6.61 3.31 1.48 7.57 2.28 3.59 5.44 6.83 0.57 5.91 1.81 1.48 1.02 2.93 5.45 4.21 3.36 2.26 0.46 5.63 4.09 1.47 1.32 6.91 5.6 2.93 0.17 5.21 2.36 4.51 4.78 4.98 
3.48 1.78 0.02 6.95 4.3 2.48 6.79 3.97 0.04 4.07 2.01 7.24 7.32 6.12 2.32 1.32 5.55 4.48 4.79 6.3 2.25 3.5 2.31 5.11 5.08 4.93 7.14 7.63 7.63 1.77 4.1 7.98 4.41 2.54 6.11 5.64 1.16 5.99 4.97 3.46 
7.51 7.06 1.15 3.34 7.64 6.45 7.81 6.93 5.22 1.48 4.64 0.08 5.62 1.1 6.01 4.01 7.37 6.34 5.48 4.92 4.85 7.23 7.25 7.03 5.58 6.16 0.39 1.13 0.74 1.15 1.35 7.66 7.58 0.63 4.05 7.3 2.42 2.42 7.42 3 
1.43 7.79 3.21 7.71 0.72 2.18 2.18 2.42 2.79 7.58 1.1 0.96 7.53 5.8 7.47 3.84 0.35 2.98 7.43 4.32 1.38 7.84 3.79 3.23 4.38 4 2.96 3.57 0.72 7.35 6.1 7.37 2.74 4.77 3.8 5.36 6.54 2.98 1.34 6.94 
2.09 2.82 2.26 2.76 2.36 1.47 3.09 2.19 7.78 6.49 1.73 1.98 0.01 1.75 1.73 3.91 1.86 5.7 0.41 2.01 7.39 1.3 1.99 5.71 7.5 0.37 4.4 6.23 7.72 0.02 6.01 5.87 2.07 3.2 3.06 6.27 0.23 6.51 1.92 0.78 
1 1 1 1 1 1 1 1 1 1 1 1 1 1 1 1 1 1 1 1 1 1 1 1 1 1 1 1 1 1 1 1 1 1 1 1 1 1 1 1 
1 1 1 1 1 1 1 1 1 1 1 1 1 1 1 1 1 1 1 1 1 1 1 1 1 1 1 1 1 1 1 1 1 1 1 1 1 1 1 1 
1 1 1 1 1 1 1 1 1 1 1 1 1 1 1 1 1 1 1 1 1 1 1 1 1 1 1 1 1 1 1 1 1 1 1 1 1 1 1 1 
1 1 1 1 1 1 1 1 1 1 1 1 1 1 1 1 1 1 1 1 1 1 1 1 1 1 1 1 1 1 1 1 1 1 1 1 1 1 1 1 
1 1 1 1 1 1 1 1 1 1 1 1 1 1 1 1 1 1 1 1 1 1 1 1 1 1 1 1 1 1 1 1 1 1 1 1 1 1 1 1 
1 1 1 1 1 1 1 1 1 1 1 1 1 1 1 1 1 1 1 1 1 1 1 1 1 1 1 1 1 1 1 1 1 1 1 1 1 1 1 1 
1 1 1 1 1 1 1 1 1 1 1 1 1 1 1 1 1 1 1 1 1 1 1 1 1 1 1 1 1 1 1 1 1 1 1 1 1 1 1 1 
1 1 1 1 1 1 1 1 1 1 1 1 1 1 1 1 1 1 1 1 1 1 1 1 1 1 1 1 1 1 1 1 1 1 1 1 1 1 1 1 
1 1 1 1 1 1 1 1 1 1 1 1 1 1 1 1 1 1 1 1 1 1 1 1 1 1 1 1 1 1 1 1 1 1 1 1 1 1 1 1 
1 1 1 1 1 1 1 1 1 1 1 1 1 1 1 1 1 1 1 1 1 1 1 1 1 1 1 1 1 1 1 1 1 1 1 1 1 1 1 1 
1 1 1 1 1 1 1 1 1 1 1 1 1 1 1 1 1 1 1 1 1 1 1 1 1 1 1 1 1 1 1 1 1 1 1 1 1 1 1 1 
1 1 1 1 1 1 1 1 1 1 1 1 1 1 1 1 1 1 1 1 1 1 1 1 1 1 1 1 1 1 1 1 1 1 1 1 1 1 1 1 
0.01 0.01 0.01 0.01 0.01 0.01 0.01 0.01 0.01 0.01 0.01 0.01 0.01 0.01 0.01 0.01 0.01 0.01 0.01 0.01 0.01 0.01 0.01 0.01 0.01 0.01 0.01 0.01 0.01 0.01 0.01 0.01 0.01 0.01 0.01 0.01 0.01 0.01 0.01 0.01 
0.02 0.02 0.02 0.02 0.02 0.02 0.02 0.02 0.02 0.02 0.02 0.02 0.02 0.02 0.02 0.02 0.02 0.02 0.02 0.02 0.02 0.02 0.02 0.02 0.02 0.02 0.02 0.02 0.02 0.02 0.02 0.02 0.02 0.02 0.02 0.02 0.02 0.02 0.02 0.02 
0.03 0.03 0.03 0.03 0.03 0.03 0.03 0.03 0.03 0.03 0.03 0.03 0.03 0.03 0.03 0.03 0.03 0.03 0.03 0.03 0.03 0.03 0.03 0.03 0.03 0.03 0.03 0.03 0.03 0.03 0.03 0.03 0.03 0.03 0.03 0.03 0.03 0.03 0.03 0.03 
0.04 0.04 0.04 0.04 0.04 0.04 0.04 0.04 0.04 0.04 0.04 0.04 0.04 0.04 0.04 0.04 0.04 0.04 0.04 0.04 0.04 0.04 0.04 0.04 0.04 0.04 0.04 0.04 0.04 0.04 0.04 0.04 0.04 0.04 0.04 0.04 0.04 0.04 0.04 0.04 
0.05 0.05 0.05 0.05 0.05 0.05 0.05 0.05 0.05 0.05 0.05 0.05 0.05 0.05 0.05 0.05 0.05 0.05 0.05 0.05 0.05 0.05 0.05 0.05 0.05 0.05 0.05 0.05 0.05 0.05 0.05 0.05 0.05 0.05 0.05 0.05 0.05 0.05 0.05 0.05 
0.06 0.06 0.06 0.06 0.06 0.06 0.06 0.06 0.06 0.06 0.06 0.06 0.06 0.06 0.06 0.06 0.06 0.06 0.06 0.06 0.06 0.06 0.06 0.06 0.06 0.06 0.06 0.06 0.06 0.06 0.06 0.06 0.06 0.06 0.06 0.06 0.06 0.06 0.06 0.06 
0.07 0.07 0.07 0.07 0.07 0.07 0.07 0.07 0.07 0.07 0.07 0.07 0.07 0.07 0.07 0.07 0.07 0.07 0.07 0.07 0.07 0.07 0.07 0.07 0.07 0.07 0.07 0.07 0.07 0.07 0.07 0.07 0.07 0.07 0.07 0.07 0.07 0.07 0.07 0.07 
0.2 0.2 0.2 0.2 0.2 0.2 0.2 0.2 0.2 0.2 0.2 0.2 0.2 0.2 0.2 0.2 0.2 0.2 0.2 0.2 0.2 0.2 0.2 0.2 0.2 0.2 0.2 0.2 0.2 0.2 0.2 0.2 0.2 0.2 0.2 0.2 0.2 0.2 0.2 0.2 
0.4 0.4 0.4 0.4 0.4 0.4 0.4 0.4 0.4 0.4 0.4 0.4 0.4 0.4 0.4 0.4 0.4 0.4 0.4 0.4 0.4 0.4 0.4 0.4 0.4 0.4 0.4 0.4 0.4 0.4 0.4 0.4 0.4 0.4 0.4 0.4 0.4 0.4 0.4 0.4 
0.6 0.6 0.6 0.6 0.6 0.6 0.6 0.6 0.6 0.6 0.6 0.6 0.6 0.6 0.6 0.6 0.6 0.6 0.6 0.6 0.6 0.6 0.6 0.6 0.6 0.6 0.6 0.6 0.6 0.6 0.6 0.6 0.6 0.6 0.6 0.6 0.6 0.6 0.6 0.6 
0.8 0.8 0.8 0.8 0.8 0.8 0.8 0.8 0.8 0.8 0.8 0.8 0.8 0.8 0.8 0.8 0.8 0.8 0.8 0.8 0.8 0.8 0.8 0.8 0.8 0.8 0.8 0.8 0.8 0.8 0.8 0.8 0.8 0.8 0.8 0.8 0.8 0.8 0.8 0.8 
1 1 1 1 1 1 1 1 1 1 1 1 1 1 1 1 1 1 1 1 1 1 1 1 1 1 1 1 1 1 1 1 1 1 1 1 1 1 1 1 
